2395 2274 2136 2024 2007 1937 1886 1808 1779 1713 1681 1630 1583 1549 1493 1471 1431 1392 1343 1323 1283 1254 1235 1198 1180 1150 1127 1111 1079 1064 1039 1024 996 976 963 960 938 930 925 917 910 895 880 864 851 847 836 828 825 812 810 803 798 792 785 780 780 775 775 771 766 766 762 761 756 736 735 733 730 729 725 725 724 724 722 721 721 719 718 714 711 711 711 707 707 707 705 705 705 705 705 705 705 703 703 703 703 703 703 703 703 703 703 703 703 703 703 703 703 703 703 703 703 703 703 703 703 703 703 703 703 703 703 703 703 703 703 703 703 703 703 703 703 703 703 703 703 703 703 703 703 703 703 703 703 703 703 703 703 703 703 703 703 703 703 703 703 703 703 703 703 703 703 703 703 703 703 703 703 703 703 703 703 703 703 703 703 703 703 703 703 703 703 703 703 703 703 703 703 703 703 703 703 703 703 703 703 703 703 703 703 703 703 703 703 703 703 703 703 703 703 703 703 703 703 703 703 703 703 703 703 703 703 703 703 703 703 703 703 703 703 703 703 703 703 703 703 703 703 703 703 703 703 703 703 703 703 703 703 703 703 703 703 703 703 703 703 703 703 703 703 703 703 703 703 703 703 703 703 703 703 703 703 703 703 703 703 703 703 703 703 703 703 703 703 703 703 703 703 703 703 703 703 703 703 703 703 703 703 703 703 703 703 703 703 703 703 703 703 703 703 703 703 703 703 703 703 703 703 703 703 703 703 703 703 703 703 703 703 703 703 703 703 703 703 703 703 703 703 703 703 703 703 703 703 703 703 703 703 703 703 703 703 703 703 703 703 703 703 703 703 703 703 703 703 703 703 703 703 703 703 703 703 703 703 703 703 703 703 703 703 703 703 703 703 703 703 703 703 703 703 703 703 703 703 703 703 703 703 703 703 703 703 703 703 703 703 703 703 703 703 703 703 703 703 703 703 703 703 703 703 703 703 703 703 703 703 703 703 703 703 703 703 703 703 703 703 703 703 703 703 703 703 703 703 703 703 703 703 703 703 703 703 703 703 703 703 703 703 703 703 703 703 703 703 703 703 703 703 703 703 703 703 703 703 703 703 703 703 703 703 703 703 703 703 703 703 703 703 703 703 703 703 703 703 703 703 703 703 703 703 703 703 703 703 703 703 703 703 703 703 703 703 703 703 703 703 703 703 703 703 703 703 703 703 703 703 703 703 703 703 703 703 703 703 703 703 703 703 703 703 703 703 703 703 703 703 703 703 703 703 703 703 703 703 703 703 703 703 703 703 703 703 703 703 703 703 703 703 703 703 703 703 703 703 703 703 703 703 703 703 703 703 703 703 703 703 703 703 703 703 703 703 703 703 703 703 703 703 703 703 703 703 703 703 703 703 703 703 703 703 703 703 703 703 703 703 703 703 703 703 703 703 703 703 703 703 703 703 703 703 703 703 703 703 703 703 703 703 703 703 703 703 703 703 703 703 703 703 703 703 703 703 703 703 703 703 703 703 703 703 703 703 703 703 703 703 703 703 703 703 703 703 703 703 703 703 703 703 703 703 703 703 703 703 703 703 703 703 703 703 703 703 703 703 703 703 703 703 703 703 703 703 703 703 703 703 703 703 703 703 703 703 703 703 703 703 703 703 703 703 703 703 703 703 703 703 703 703 703 703 703 703 703 703 703 703 703 703 703 703 703 703 703 703 703 703 703 703 703 703 703 703 703 703 703 703 703 703 703 703 703 703 703 703 703 703 703 703 703 703 703 703 703 703 703 703 703 703 703 703 703 703 703 703 703 703 703 703 703 703 703 703 703 703 703 703 703 703 703 703 703 703 703 703 703 703 703 703 703 703 703 703 703 703 703 703 703 703 703 703 703 703 703 703 703 703 703 703 703 703 703 703 703 703 703 703 703 703 703 703 703 703 703 703 703 703 703 703 703 703 703 703 703 703 703 703 703 703 703 703 703 703 703 703 703 703 703 703 703 703 703 703 703 703 703 703 703 703 703 703 703 703 703 703 703 703 703 703 703 703 703 703 703 703 703 703 703 703 703 703 703 703 703 703 703 703 703 703 703 703 703 703 703 703 703 703 703 703 703 703 703 703 703 703 703 703 703 703 703 703 703 703 703 703 703 703 703 703 703 703 703 703 703 703 703 703 703 703 703 703 703 703 703 703 703 703 703 703 703 703 703 703 703 703 703 703 703 703 703 703 703 703 703 703 703 703 703 703 703 703 703 703 703 703 703 703 703 703 703 703 703 703 703 703 703 703 703 703 703 703 703 703 703 703 703 703 703 703 703 703 703 703 703 703 703 703 703 703 703 703 703 703 703 703 703 703 703 703 703 703 703 703 703 703 703 703 703 703 703 703 703 703 703 703 703 703 703 703 703 703 703 703 703 703 703 703 703 703 703 703 703 703 703 703 703 703 703 703 703 703 703 703 703 703 703 703 703 703 703 703 703 703 703 703 703 703 703 703 703 703 703 703 703 703 703 703 703 703 703 703 703 703 703 703 703 703 703 703 703 703 703 703 703 703 703 703 703 703 703 703 703 703 703 703 703 703 703 703 703 703 703 703 703 703 703 703 703 703 703 703 703 703 703 703 703 703 703 703 703 703 703 703 703 703 703 703 703 703 703 703 703 703 703 703 703 703 703 703 703 703 703 703 703 703 703 703 703 703 703 703 703 703 703 703 703 703 703 703 703 703 703 703 703 703 703 703 703 703 703 703 703 703 703 703 703 703 703 703 703 703 703 703 703 703 703 703 703 703 703 703 703 703 703 703 703 703 703 703 703 703 703 703 703 703 703 703 703 703 703 703 703 703 703 703 703 703 703 703 703 703 703 703 703 703 703 703 703 703 703 703 703 703 703 703 703 703 703 703 703 703 703 703 703 703 703 703 703 703 703 703 703 703 703 703 703 703 703 703 703 703 703 703 703 703 703 703 703 703 703 703 703 703 703 703 703 703 703 703 703 703 703 703 703 703 703 703 703 703 703 703 703 703 703 703 703 703 703 703 703 703 703 703 703 703 703 703 703 703 703 703 703 703 703 703 703 703 703 703 703 703 703 703 703 703 703 703 703 703 703 703 703 703 703 703 703 703 703 703 703 703 703 703 703 703 703 703 703 703 703 703 703 703 703 703 703 703 703 703 703 703 703 703 703 703 703 703 703 703 703 703 703 703 703 703 703 703 703 703 703 703 703 703 703 703 703 703 703 703 703 703 703 703 703 703 703 703 703 703 703 703 703 703 703 703 703 703 703 703 703 703 703 703 703 703 703 703 703 703 703 703 703 703 703 703 703 703 703 703 703 703 703 703 703 703 703 703 703 703 703 703 703 703 703 703 703 703 703 703 703 703 703 703 703 703 703 703 703 703 703 703 703 703 703 703 703 703 703 703 703 
2693 2516 2402 2307 2214 2128 2061 2001 1936 1875 1818 1778 1730 1678 1631 1582 1541 1499 1457 1414 1372 1332 1294 1263 1238 1213 1187 1162 1138 1116 1095 1072 1048 1023 999 980 965 957 948 937 930 920 907 895 878 863 856 848 837 829 823 815 809 804 797 790 784 779 779 777 775 772 768 766 765 761 759 750 735 734 731 728 724 724 724 723 723 722 720 720 717 717 712 710 710 710 710 706 706 705 705 705 705 704 704 704 703 703 703 703 703 703 703 703 703 703 703 703 703 703 703 703 703 703 703 703 703 703 703 703 703 703 703 703 703 703 703 703 703 703 703 703 703 703 703 703 703 703 703 703 703 703 703 703 703 703 703 703 703 703 703 703 703 703 703 703 703 703 703 703 703 703 703 703 703 703 703 703 703 703 703 703 703 703 703 703 703 703 703 703 703 703 703 703 703 703 703 703 703 703 703 703 703 703 703 703 703 703 703 703 703 703 703 703 703 703 703 703 703 703 703 703 703 703 703 703 703 703 703 703 703 703 703 703 703 703 703 703 703 703 703 703 703 703 703 703 703 703 703 703 703 703 703 703 703 703 703 703 703 703 703 703 703 703 703 703 703 703 703 703 703 703 703 703 703 703 703 703 703 703 703 703 703 703 703 703 703 703 703 703 703 703 703 703 703 703 703 703 703 703 703 703 703 703 703 703 703 703 703 703 703 703 703 703 703 703 703 703 703 703 703 703 703 703 703 703 703 703 703 703 703 703 703 703 703 703 703 703 703 703 703 703 703 703 703 703 703 703 703 703 703 703 703 703 703 703 703 703 703 703 703 703 703 703 703 703 703 703 703 703 703 703 703 703 703 703 703 703 703 703 703 703 703 703 703 703 703 703 703 703 703 703 703 703 703 703 703 703 703 703 703 703 703 703 703 703 703 703 703 703 703 703 703 703 703 703 703 703 703 703 703 703 703 703 703 703 703 703 703 703 703 703 703 703 703 703 703 703 703 703 703 703 703 703 703 703 703 703 703 703 703 703 703 703 703 703 703 703 703 703 703 703 703 703 703 703 703 703 703 703 703 703 703 703 703 703 703 703 703 703 703 703 703 703 703 703 703 703 703 703 703 703 703 703 703 703 703 703 703 703 703 703 703 703 703 703 703 703 703 703 703 703 703 703 703 703 703 703 703 703 703 703 703 703 703 703 703 703 703 703 703 703 703 703 703 703 703 703 703 703 703 703 703 703 703 703 703 703 703 703 703 703 703 703 703 703 703 703 703 703 703 703 703 703 703 703 703 703 703 703 703 703 703 703 703 703 703 703 703 703 703 703 703 703 703 703 703 703 703 703 703 703 703 703 703 703 703 703 703 703 703 703 703 703 703 703 703 703 703 703 703 703 703 703 703 703 703 703 703 703 703 703 703 703 703 703 703 703 703 703 703 703 703 703 703 703 703 703 703 703 703 703 703 703 703 703 703 703 703 703 703 703 703 703 703 703 703 703 703 703 703 703 703 703 703 703 703 703 703 703 703 703 703 703 703 703 703 703 703 703 703 703 703 703 703 703 703 703 703 703 703 703 703 703 703 703 703 703 703 703 703 703 703 703 703 703 703 703 703 703 703 703 703 703 703 703 703 703 703 703 703 703 703 703 703 703 703 703 703 703 703 703 703 703 703 703 703 703 703 703 703 703 703 703 703 703 703 703 703 703 703 703 703 703 703 703 703 703 703 703 703 703 703 703 703 703 703 703 703 703 703 703 703 703 703 703 703 703 703 703 703 703 703 703 703 703 703 703 703 703 703 703 703 703 703 703 703 703 703 703 703 703 703 703 703 703 703 703 703 703 703 703 703 703 703 703 703 703 703 703 703 703 703 703 703 703 703 703 703 703 703 703 703 703 703 703 703 703 703 703 703 703 703 703 703 703 703 703 703 703 703 703 703 703 703 703 703 703 703 703 703 703 703 703 703 703 703 703 703 703 703 703 703 703 703 703 703 703 703 703 703 703 703 703 703 703 703 703 703 703 703 703 703 703 703 703 703 703 703 703 703 703 703 703 703 703 703 703 703 703 703 703 703 703 703 703 703 703 703 703 703 703 703 703 703 703 703 703 703 703 703 703 703 703 703 703 703 703 703 703 703 703 703 703 703 703 703 703 703 703 703 703 703 703 703 703 703 703 703 703 703 703 703 703 703 703 703 703 703 703 703 703 703 703 703 703 703 703 703 703 703 703 703 703 703 703 703 703 703 703 703 703 703 703 703 703 703 703 703 703 703 703 703 703 703 703 703 703 703 703 703 703 703 703 703 703 703 703 703 703 703 703 703 703 703 703 703 703 703 703 703 703 703 703 703 703 703 703 703 703 703 703 703 703 703 703 703 703 703 703 703 703 703 703 703 703 703 703 703 703 703 703 703 703 703 703 703 703 703 703 703 703 703 703 703 703 703 703 703 703 703 703 703 703 703 703 703 703 703 703 703 703 703 703 703 703 703 703 703 703 703 703 703 703 703 703 703 703 703 703 703 703 703 703 703 703 703 703 703 703 703 703 703 703 703 703 703 703 703 703 703 703 703 703 703 703 703 703 703 703 703 703 703 703 703 703 703 703 703 703 703 703 703 703 703 703 703 703 703 703 703 703 703 703 703 703 703 703 703 703 703 703 703 703 703 703 703 703 703 703 703 703 703 703 703 703 703 703 703 703 703 703 703 703 703 703 703 703 703 703 703 703 703 703 703 703 703 703 703 703 703 703 703 703 703 703 703 703 703 703 703 703 703 703 703 703 703 703 703 703 703 703 703 703 703 703 703 703 703 703 703 703 703 703 703 703 703 703 703 703 703 703 703 703 703 703 703 703 703 703 703 703 703 703 703 703 703 703 703 703 703 703 703 703 703 703 703 703 703 703 703 703 703 703 703 703 703 703 703 703 703 703 703 703 703 703 703 703 703 703 703 703 703 703 703 703 703 703 703 703 703 703 703 703 703 703 703 703 703 703 703 703 703 703 703 703 703 703 703 703 703 703 703 703 703 703 703 703 703 703 703 703 703 703 703 703 703 703 703 703 703 703 703 703 703 703 703 703 703 703 703 703 703 703 703 703 703 703 703 703 703 703 703 703 703 703 703 703 703 703 703 703 703 703 703 703 703 703 703 703 703 703 703 703 703 703 703 703 703 703 703 703 703 703 703 703 703 703 703 703 703 703 703 703 703 703 703 703 703 703 703 703 703 703 703 703 703 703 703 703 703 703 703 703 703 703 703 703 703 703 703 703 703 703 703 703 703 703 703 703 703 703 703 703 703 703 703 703 703 703 703 703 703 703 703 703 703 703 703 703 703 703 703 703 703 703 703 703 703 703 703 703 703 703 703 703 703 703 703 703 703 703 703 703 703 703 703 703 703 703 703 703 703 703 703 703 703 703 703 703 